num_stars = 5;
dim = 21;
sectors = [|
1, 1, 1, 1, 1, 1, 2, 2, 2, 3, 3, 3, 3, 3, 3, 3, 4, 5, 5, 5, 5|
6, 1, 1, 1, 2, 2, 2, 3, 3, 3, 3, 3, 3, 3, 3, 4, 4, 4, 4, 4, 5|
6, 1, 1, 1, 1, 1, 2, 2, 2, 3, 3, 3, 3, 3, 3, 3, 4, 4, 5, 5, 5|
6, 1, 1, 1, 1, 1, 2, 7, 2, 7, 3, 3, 4, 3, 4, 3, 4, 4, 4, 5, 8|
6, 1, 1, 1, 1, 7, 7, 7, 2, 7, 7, 4, 4, 4, 4, 4, 4, 4, 5, 5, 8|
6, 1, 1, 1, 1, 7, 7, 7, 7, 7, 7, 4, 4, 4, 4, 4, 4, 4, 4, 8, 8|
6, 6, 6, 6, 1, 7, 7, 7, 7, 7, 4, 4, 9, 4, 9, 4, 10, 10, 8, 8, 8|
6, 6, 11, 6, 7, 7, 7, 7, 7, 7, 7, 4, 9, 4, 9, 9, 9, 10, 10, 8, 8|
6, 11, 11, 7, 7, 7, 7, 12, 7, 12, 7, 9, 9, 9, 9, 10, 9, 10, 8, 8, 8|
6, 11, 11, 11, 7, 7, 7, 12, 12, 12, 12, 12, 13, 9, 13, 10, 9, 10, 8, 8, 8|
6, 11, 11, 7, 7, 7, 14, 12, 12, 15, 15, 12, 13, 9, 13, 10, 10, 10, 8, 8, 8|
11, 11, 11, 11, 14, 14, 14, 12, 12, 15, 15, 15, 13, 13, 13, 13, 13, 8, 8, 8, 8|
11, 11, 11, 11, 11, 14, 14, 12, 15, 15, 13, 15, 13, 13, 13, 13, 13, 16, 16, 8, 8|
17, 11, 11, 11, 14, 14, 14, 14, 15, 13, 13, 13, 13, 13, 13, 13, 13, 16, 16, 16, 16|
17, 11, 11, 14, 14, 14, 14, 14, 15, 15, 15, 13, 13, 13, 13, 13, 13, 13, 16, 16, 16|
17, 17, 17, 17, 14, 14, 14, 14, 14, 13, 13, 13, 13, 13, 13, 18, 18, 16, 16, 16, 16|
17, 14, 14, 14, 14, 14, 14, 19, 13, 13, 19, 13, 19, 18, 13, 18, 18, 16, 16, 16, 16|
17, 17, 14, 14, 14, 14, 14, 19, 19, 19, 19, 19, 19, 18, 18, 18, 18, 16, 16, 16, 20|
17, 14, 14, 14, 14, 21, 14, 19, 18, 19, 18, 18, 18, 18, 18, 18, 18, 16, 16, 16, 20|
17, 14, 21, 14, 14, 21, 14, 18, 18, 18, 18, 18, 18, 18, 18, 20, 18, 20, 16, 20, 20|
21, 21, 21, 21, 21, 21, 21, 21, 21, 18, 18, 18, 18, 20, 20, 20, 20, 20, 20, 20, 20|
];